benchmarks/VRPTW/TSPTW/ins/n100w80.003.txt


!! n100w80.003    77.24 859


CUST NO.   XCOORD.   YCOORD.    DEMAND   READY TIME   DUE DATE   SERVICE TIME


    1      24.00      43.00       0.00       0.00     869.00       0.00
    2      25.00       9.00       0.00      82.00     136.00       0.00
    3      14.00      49.00       0.00     544.00     650.00       0.00
    4      38.00      25.00       0.00     218.00     239.00       0.00
    5      38.00      47.00       0.00       0.00      60.00       0.00
    6      11.00      15.00       0.00      72.00     152.00       0.00
    7      40.00      15.00       0.00     198.00     331.00       0.00
    8       9.00      32.00       0.00     418.00     471.00       0.00
    9      29.00      46.00       0.00       0.00      60.00       0.00
   10      15.00      35.00       0.00     372.00     419.00       0.00
   11      32.00      48.00       0.00       0.00      85.00       0.00
   12      33.00       9.00       0.00     121.00     195.00       0.00
   13      26.00       4.00       0.00     124.00     209.00       0.00
   14       9.00      38.00       0.00     333.00     430.00       0.00
   15      21.00       9.00       0.00      49.00     135.00       0.00
   16      25.00      34.00       0.00       0.00     134.00       0.00
   17      29.00      41.00       0.00     309.00     385.00       0.00
   18       8.00      28.00       0.00     411.00     516.00       0.00
   19      19.00       6.00       0.00      92.00     112.00       0.00
   20       7.00      18.00       0.00     447.00     485.00       0.00
   21      24.00      43.00       0.00     319.00     354.00       0.00
   22      32.00       3.00       0.00      90.00     215.00       0.00
   23       4.00      38.00       0.00     309.00     409.00       0.00
   24      10.00      22.00       0.00     457.00     568.00       0.00
   25      41.00      41.00       0.00      11.00     113.00       0.00
   26       1.00      38.00       0.00     371.00     419.00       0.00
   27      50.00      11.00       0.00     168.00     197.00       0.00
   28      23.00      45.00       0.00       0.00      70.00       0.00
   29       5.00      12.00       0.00     410.00     528.00       0.00
   30      35.00      25.00       0.00     188.00     289.00       0.00
   31      48.00      17.00       0.00     156.00     279.00       0.00
   32      31.00      34.00       0.00       1.00      74.00       0.00
   33      32.00      46.00       0.00       0.00      42.00       0.00
   34      34.00      48.00       0.00       0.00      40.00       0.00
   35      25.00      44.00       0.00       0.00      64.00       0.00
   36      49.00       6.00       0.00     166.00     205.00       0.00
   37      17.00      33.00       0.00     348.00     387.00       0.00
   38      13.00      10.00       0.00      56.00     156.00       0.00
   39       5.00      39.00       0.00     566.00     710.00       0.00
   40       2.00      43.00       0.00     336.00     434.00       0.00
   41      15.00      18.00       0.00      63.00      96.00       0.00
   42      28.00      43.00       0.00       0.00      52.00       0.00
   43      12.00       1.00       0.00     614.00     729.00       0.00
   44      45.00       8.00       0.00     123.00     234.00       0.00
   45      21.00      22.00       0.00      62.00     152.00       0.00
   46      40.00      25.00       0.00     194.00     303.00       0.00
   47      17.00      41.00       0.00     291.00     433.00       0.00
   48      28.00      24.00       0.00     463.00     563.00       0.00
   49      37.00      41.00       0.00      15.00      59.00       0.00
   50      32.00      26.00       0.00     280.00     361.00       0.00
   51      36.00       7.00       0.00     152.00     228.00       0.00
   52       9.00      24.00       0.00     375.00     499.00       0.00
   53      39.00       4.00       0.00     637.00     763.00       0.00
   54      13.00      15.00       0.00     492.00     546.00       0.00
   55       9.00      29.00       0.00     378.00     484.00       0.00
   56       1.00      24.00       0.00     382.00     478.00       0.00
   57      30.00      50.00       0.00     583.00     680.00       0.00
   58      17.00      40.00       0.00     335.00     402.00       0.00
   59      31.00      38.00       0.00      46.00     102.00       0.00
   60      23.00       6.00       0.00      66.00     160.00       0.00
   61      46.00      34.00       0.00     242.00     303.00       0.00
   62      48.00      24.00       0.00     207.00     260.00       0.00
   63      30.00      43.00       0.00       0.00      20.00       0.00
   64      38.00      29.00       0.00     212.00     274.00       0.00
   65      48.00      40.00       0.00     293.00     321.00       0.00
   66      17.00      35.00       0.00     357.00     383.00       0.00
   67      28.00      40.00       0.00     563.00     654.00       0.00
   68      42.00       4.00       0.00     166.00     249.00       0.00
   69      12.00      18.00       0.00      66.00     120.00       0.00
   70      23.00      13.00       0.00      99.00     139.00       0.00
   71       3.00      27.00       0.00     393.00     512.00       0.00
   72      33.00      36.00       0.00      22.00      57.00       0.00
   73      13.00      42.00       0.00     299.00     383.00       0.00
   74      26.00      35.00       0.00     327.00     354.00       0.00
   75      47.00      46.00       0.00     240.00     354.00       0.00
   76      42.00      39.00       0.00     217.00     362.00       0.00
   77      50.00      28.00       0.00     287.00     336.00       0.00
   78      20.00      28.00       0.00      14.00     121.00       0.00
   79      12.00      44.00       0.00     361.00     481.00       0.00
   80      43.00      18.00       0.00     188.00     318.00       0.00
   81      14.00      36.00       0.00     307.00     454.00       0.00
   82      40.00      14.00       0.00     548.00     614.00       0.00
   83      49.00      46.00       0.00     706.00     764.00       0.00
   84      13.00      18.00       0.00      29.00     136.00       0.00
   85       5.00      22.00       0.00     445.00     473.00       0.00
   86      22.00      18.00       0.00     490.00     527.00       0.00
   87      49.00       3.00       0.00     124.00     238.00       0.00
   88      36.00      44.00       0.00      30.00      36.00       0.00
   89      41.00      26.00       0.00     167.00     236.00       0.00
   90      50.00       3.00       0.00     138.00     223.00       0.00
   91      20.00       5.00       0.00     112.00     145.00       0.00
   92       0.00       2.00       0.00     762.00     822.00       0.00
   93       3.00      14.00       0.00     438.00     558.00       0.00
   94       2.00       8.00       0.00     456.00     507.00       0.00
   95      10.00      18.00       0.00      71.00      97.00       0.00
   96      36.00      50.00       0.00       6.00      87.00       0.00
   97      36.00       2.00       0.00      93.00     193.00       0.00
   98      37.00      20.00       0.00     187.00     253.00       0.00
   99      23.00      32.00       0.00      20.00     127.00       0.00
  100       1.00      28.00       0.00     415.00     486.00       0.00
  101      37.00      39.00       0.00     732.00     788.00       0.00
  999       0.00       0.00       0.00       0.00       0.00       0.00
